200
50 50
1 40 463
2 40 572
3 39 477
4 39 306
5 38 924
6 38 816
7 38 733
8 38 387
9 37 2
10 37 240
11 37 243
12 37 412
13 37 209
14 36 550
15 36 199
16 36 97
17 36 472
18 36 440
19 36 64
20 35 89
21 35 555
22 35 698
23 35 440
24 35 400
25 34 488
26 34 757
27 34 830
28 34 221
29 34 204
30 34 518
31 33 356
32 33 802
33 33 137
34 33 675
35 33 450
36 33 939
37 33 232
38 33 957
39 33 572
40 33 514
41 32 423
42 32 158
43 32 42
44 32 44
45 32 605
46 32 125
47 32 621
48 31 344
49 31 230
50 31 744
51 31 445
52 31 578
53 31 603
54 31 325
55 30 708
56 30 731
57 30 830
58 30 444
59 30 532
60 29 654
61 29 447
62 29 92
63 29 291
64 29 94
65 29 577
66 29 889
67 29 166
68 29 675
69 28 987
70 28 876
71 28 289
72 28 607
73 28 452
74 28 286
75 28 609
76 28 933
77 28 225
78 28 615
79 27 390
80 27 50
81 27 331
82 27 23
83 27 226
84 27 734
85 26 226
86 25 554
87 24 655
88 24 695
89 24 832
90 24 280
91 24 73
92 24 421
93 24 842
94 24 495
95 23 310
96 23 244
97 23 678
98 23 669
99 23 334
100 22 738
101 22 370
102 22 40
103 22 66
104 22 808
105 21 33
106 21 795
107 21 763
108 21 964
109 21 22
110 21 86
111 20 366
112 20 121
113 20 864
114 20 668
115 20 442
116 20 358
117 20 64
118 20 716
119 20 369
120 20 494
121 19 556
122 19 618
123 19 65
124 19 267
125 19 58
126 19 536
127 19 219
128 18 847
129 18 443
130 18 328
131 18 753
132 18 455
133 18 467
134 18 71
135 17 295
136 17 846
137 17 742
138 17 378
139 17 462
140 17 629
141 17 50
142 17 659
143 17 505
144 17 338
145 16 91
146 16 622
147 16 854
148 16 101
149 16 634
150 15 291
151 14 231
152 14 658
153 14 102
154 14 462
155 14 182
156 13 705
157 13 826
158 13 483
159 13 304
160 13 747
161 13 874
162 13 951
163 13 28
164 13 114
165 12 509
166 12 945
167 11 580
168 11 181
169 11 348
170 11 702
171 10 251
172 10 148
173 10 715
174 10 94
175 10 428
176 10 464
177 9 574
178 9 442
179 9 59
180 9 861
181 9 363
182 9 972
183 8 205
184 8 472
185 8 944
186 8 826
187 8 297
188 7 531
189 7 654
190 7 73
191 7 323
192 6 904
193 6 393
194 6 368
195 6 734
196 5 873
197 5 5
198 5 53
199 5 713
200 5 785
